p cnf 20 20
-17 12 5 0
-2 -8 -1 0
-1 10 7 0
1 -14 10 0
-20 10 -14 0
-6 -17 -14 0
9 -10 -12 0
13 4 5 0
7 12 4 0
1 6 9 0
-4 -19 -12 0
10 16 -6 0
7 -16 17 0
19 -16 -1 0
-15 -2 -11 0
-17 11 -3 0
12 6 11 0
5 -14 -17 0
16 -10 5 0
8 15 12 0
